4092014096773997932509,7,1,2,05,7,1,2,06,13,1,2,02,6,1,2,015,5,1,2,03,3,1,2,011,8,1,2,013,9,1,2,06,13,1,2,012,7,1,2,04,9,1,2,014,6,1,2,02,6,1,2,06,5,1,2,015,7,1,2,015,10,1,2,014,13,1,2,08,8,1,2,08,1,1,2,05,9,1,2,02,14,1,2,013,4,1,2,014,11,1,2,08,9,1,2,014,10,1,2,013,13,1,2,015,15,1,2,04,11,1,2,07,4,1,2,04,1,1,2,09,14,1,2,07,2,1,2,013,7,1,2,07,3,1,2,05,1,1,2,03,15,1,2,02,3,1,2,013,4,1,2,06,3,1,2,05,1,1,2,012,3,1,2,03,3,1,2,08,8,1,2,012,14,1,2,08,2,1,2,014,1,1,2,09,4,1,2,010,5,1,2,07,6,1,2,05,2,1,2,0